4034
3997
4008
3978
3990
3965
4035
3969
4022
4001
3966
4021
3987
4029
4027
4042
4007
3980
3967
4041
4042
4052
4028
4030
4014
4043
4018
3987
4017
3948
4028
4015
4059
4038
4016
4058
4037
3973
4002
3967
4036
4023
4034
4033
4024
3962
4038
4055
4049
3919
4052
4031
4013
4071
3982
4020
4011
4013
4042
4024
4026
4031
4016
4030
4053
4023
4004
4074
4035
3945
4019
4023
4010
4011
3956
4051
4017
4076
3916
4007
4021
4034
4059
4053
4005
3986
4017
4050
4034
3940
3994
3986
4039
3983
4030
4005
4032
4011
4026
4000
